Problem:    
Rows:       248
Columns:    89 (72 integer, 72 binary)
Non-zeros:  820
Status:     INTEGER OPTIMAL
Objective:  value = 13.61312 (MINimum)

   No.   Row name        Activity     Lower bound   Upper bound
------ ------------    ------------- ------------- -------------
     1 r.5                   2013.61             0               
     2 r.6                  -1998.13      -1999.43               
     3 r.7                   13.6131             0               
     4 r.8                   5.42829      -1996.83               
     5 r.9                   2013.61             0               
     6 r.10                 -1995.03      -1999.37               
     7 r.11                  13.6131             0               
     8 r.12                 -1.37553      -1997.26               
     9 r.13                  2013.61             0               
    10 r.14                 -1993.57      -1999.08               
    11 r.15                  13.6131             0               
    12 r.16                  2.25983      -1996.36               
    13 r.17                  2013.61             0               
    14 r.18                 -1995.73      -1999.51               
    15 r.19                  13.6131             0               
    16 r.20                 -1989.81      -1997.32               
    17 r.21                  2013.61             0               
    18 r.22                 -1994.57      -1999.54               
    19 r.23                  13.6131             0               
    20 r.24                 -4.11226      -1997.68               
    21 r.25                  2013.61             0               
    22 r.26                 -1987.35       -1998.9               
    23 r.27                  13.6131             0               
    24 r.28                 -4.11226      -1994.05               
    25 r.29                  2013.61             0               
    26 r.30                 -1986.39      -1999.04               
    27 r.31                  13.6131             0               
    28 r.32                  2.25983      -1997.42               
    29 r.33                  2013.61             0               
    30 r.34                 -1999.95      -1999.95               
    31 r.35                  13.6131             0               
    32 r.36                   0.0509      -1998.27               
    33 r.37                        1             1             = 
    34 r.38                        1             1             = 
    35 r.39                        1             1             = 
    36 r.40                        1             1             = 
    37 r.41                        1             1             = 
    38 r.42                        1             1             = 
    39 r.43                        1             1             = 
    40 r.44                        1             1             = 
    41 r.45                  3.09919      0.628844               
    42 r.46                 -3.09919      -1999.43               
    43 r.47                   1993.2       2.73673               
    44 r.48                  -1993.2      -1996.83               
    45 r.49                  4.56268      0.918475               
    46 r.50                 -4.56268      -1999.43               
    47 r.51                  1996.83       3.63535               
    48 r.52                 -1996.83      -1996.83               
    49 r.53                  2.40066      0.487125               
    50 r.54                 -2.40066      -1999.43               
    51 r.55                   4.7605       2.67661               
    52 r.56                  -4.7605      -1996.83               
    53 r.57                  3.56029        0.4611               
    54 r.58                 -3.56029      -1999.43               
    55 r.59                  1990.46       2.31687               
    56 r.60                 -1990.46      -1996.83               
    57 r.61                 -1989.22      -1992.78               
    58 r.62                 -5.98027      -1981.82               
    59 r.63                 -1992.78      -1992.78               
    60 r.64                 -9.54055      -1981.82               
    61 r.65                  11.7451        0.9647               
    62 r.66                 -11.7451      -1999.43               
    63 r.67                  1996.83       2.58473               
    64 r.68                 -1996.83      -1996.83               
    65 r.69                 -1998.18      -1998.18               
    66 r.70                  5.37739      -1994.34               
    67 r.71                 -1998.18      -1998.18               
    68 r.72                  5.37739      -1994.34               
    69 r.73                   1996.9      0.573561               
    70 r.74                  -1996.9      -1999.37               
    71 r.75                  6.80382       3.16847               
    72 r.76                 -6.80382      -1997.26               
    73 r.77                  1.46349      0.918475               
    74 r.78                 -1.46349      -1999.37               
    75 r.79                  3.63535       3.63535               
    76 r.80                 -3.63535      -1997.26               
    77 r.81                   1999.3      0.487125               
    78 r.82                  -1999.3      -1999.37               
    79 r.83                  11.5643       2.67661               
    80 r.84                 -11.5643      -1997.26               
    81 r.85                   0.4611        0.4611               
    82 r.86                  -0.4611      -1999.37               
    83 r.87                  1997.26       2.31687               
    84 r.88                 -1997.26      -1997.26               
    85 r.89                  7.68123       1.10397               
    86 r.90                 -7.68123      -1999.37               
    87 r.91                  1997.26       5.94566               
    88 r.92                 -1997.26      -1997.26               
    89 r.93                 -1991.35      -1992.82               
    90 r.94                 -2.70737      -1984.98               
    91 r.95                 -1985.01      -1992.82               
    92 r.96                  3.63535      -1984.98               
    93 r.97                 -1995.08      -1998.13               
    94 r.98                 -1.42643      -1994.78               
    95 r.99                 -1995.08      -1998.13               
    96 r.100                -1.42643      -1994.78               
    97 r.101                 1995.44      0.573561               
    98 r.102                -1995.44      -1999.08               
    99 r.103                 3.16847       3.16847               
   100 r.104                -3.16847      -1996.36               
   101 r.105                 1998.54      0.628844               
   102 r.106                -1998.54      -1999.08               
   103 r.107                 1996.36       2.73673               
   104 r.108                -1996.36      -1996.36               
   105 r.109                -1997.84      -1997.84               
   106 r.110                -2.00884      -1993.88               
   107 r.111                -3.75811      -1997.84               
   108 r.112                 1992.07      -1993.88               
   109 r.113                    1999        0.4611               
   110 r.114                   -1999      -1999.08               
   111 r.115                 1993.63       2.31687               
   112 r.116                -1993.63      -1996.36               
   113 r.117                 6.21773       1.10397               
   114 r.118                -6.21773      -1999.08               
   115 r.119                 1993.63       5.94566               
   116 r.120                -1993.63      -1996.36               
   117 r.121                -1992.82      -1992.82               
   118 r.122                -4.17086      -1984.98               
   119 r.123                -1988.65      -1992.82               
   120 r.124                       0      -1984.98               
   121 r.125                -1993.62      -1997.84               
   122 r.126                 2.20893      -1993.88               
   123 r.127                -1993.62      -1997.84               
   124 r.128                 2.20893      -1993.88               
   125 r.129                  1997.6      0.573561               
   126 r.130                 -1997.6      -1999.51               
   127 r.131                 1995.24       3.16847               
   128 r.132                -1995.24      -1997.32               
   129 r.133                0.698529      0.628844               
   130 r.134               -0.698529      -1999.51               
   131 r.135                 1988.44       2.73673               
   132 r.136                -1988.44      -1997.32               
   133 r.137                -1997.84      -1997.84               
   134 r.138                -2.00884      -1993.88               
   135 r.139                -3.75811      -1997.84               
   136 r.140                 1992.07      -1993.88               
   137 r.141                 1.15963        0.4611               
   138 r.142                -1.15963      -1999.51               
   139 r.143                  1985.7       2.31687               
   140 r.144                 -1985.7      -1997.32               
   141 r.145                 8.37975       1.10397               
   142 r.146                -8.37975      -1999.51               
   143 r.147                  1985.7       5.94566               
   144 r.148                 -1985.7      -1997.32               
   145 r.149                -1990.66      -1992.82               
   146 r.150                -2.00884      -1984.98               
   147 r.151                 3.42433      -1992.82               
   148 r.152                 1992.07      -1984.98               
   149 r.153                -1995.78      -1995.78               
   150 r.154                -1989.86      -1989.86               
   151 r.155                -1995.78      -1995.78               
   152 r.156                -1989.86      -1989.86               
   153 r.157                 1996.44      0.573561               
   154 r.158                -1996.44      -1999.54               
   155 r.159                 9.54055       3.16847               
   156 r.160                -9.54055      -1997.68               
   157 r.161                 1999.54      0.628844               
   158 r.162                -1999.54      -1999.54               
   159 r.163                 2.73673       2.73673               
   160 r.164                -2.73673      -1997.68               
   161 r.165                 1.00239      0.918475               
   162 r.166                -1.00239      -1999.54               
   163 r.167                 6.37208       3.63535               
   164 r.168                -6.37208      -1997.68               
   165 r.169                 1998.84      0.487125               
   166 r.170                -1998.84      -1999.54               
   167 r.171                 14.3011       2.67661               
   168 r.172                -14.3011      -1997.68               
   169 r.173                -1992.78      -1992.78               
   170 r.174                -9.54055      -1981.82               
   171 r.175                -1983.24      -1992.78               
   172 r.176                       0      -1981.82               
   173 r.177                -1991.82      -1992.82               
   174 r.178                -3.16847      -1984.98               
   175 r.179                -1982.27      -1992.82               
   176 r.180                 6.37208      -1984.98               
   177 r.181                -1994.62      -1997.05               
   178 r.182                -4.16316      -1992.71               
   179 r.183                -1994.62      -1997.05               
   180 r.184                -4.16316      -1992.71               
   181 r.185                -1989.22      -1992.78               
   182 r.186                -5.98027      -1981.82               
   183 r.187                -1992.78      -1992.78               
   184 r.188                -9.54055      -1981.82               
   185 r.189                 1992.32      0.628844               
   186 r.190                -1992.32       -1998.9               
   187 r.191                 2.73673       2.73673               
   188 r.192                -2.73673      -1994.05               
   189 r.193                 1993.78      0.918475               
   190 r.194                -1993.78       -1998.9               
   191 r.195                 6.37208       3.63535               
   192 r.196                -6.37208      -1994.05               
   193 r.197                 1991.62      0.487125               
   194 r.198                -1991.62       -1998.9               
   195 r.199                 14.3011       2.67661               
   196 r.200                -14.3011      -1994.05               
   197 r.201                -1992.78      -1992.78               
   198 r.202                -9.54055      -1981.82               
   199 r.203                -1983.24      -1992.78               
   200 r.204                       0      -1981.82               
   201 r.205                  0.9647        0.9647               
   202 r.206                 -0.9647       -1998.9               
   203 r.207                 6.37208       2.58473               
   204 r.208                -6.37208      -1994.05               
   205 r.209                 1988.25      0.573561               
   206 r.210                -1988.25      -1999.04               
   207 r.211                 3.16847       3.16847               
   208 r.212                -3.16847      -1997.42               
   209 r.213                -1991.35      -1992.82               
   210 r.214                -2.70737      -1984.98               
   211 r.215                -1985.01      -1992.82               
   212 r.216                 3.63535      -1984.98               
   213 r.217                -1992.82      -1992.82               
   214 r.218                -4.17086      -1984.98               
   215 r.219                -1988.65      -1992.82               
   216 r.220                       0      -1984.98               
   217 r.221                -1990.66      -1992.82               
   218 r.222                -2.00884      -1984.98               
   219 r.223                 3.42433      -1992.82               
   220 r.224                 1992.07      -1984.98               
   221 r.225                -1991.82      -1992.82               
   222 r.226                -3.16847      -1984.98               
   223 r.227                -1982.27      -1992.82               
   224 r.228                 6.37208      -1984.98               
   225 r.229                 1999.04       1.10397               
   226 r.230                -1999.04      -1999.04               
   227 r.231                 1993.63       5.94566               
   228 r.232                -1993.63      -1997.42               
   229 r.233                -1998.18      -1998.18               
   230 r.234                 5.37739      -1994.34               
   231 r.235                -1998.18      -1998.18               
   232 r.236                 5.37739      -1994.34               
   233 r.237                -1995.08      -1998.13               
   234 r.238                -1.42643      -1994.78               
   235 r.239                -1995.08      -1998.13               
   236 r.240                -1.42643      -1994.78               
   237 r.241                -1993.62      -1997.84               
   238 r.242                 2.20893      -1993.88               
   239 r.243                -1993.62      -1997.84               
   240 r.244                 2.20893      -1993.88               
   241 r.245                -1995.78      -1995.78               
   242 r.246                -1989.86      -1989.86               
   243 r.247                -1995.78      -1995.78               
   244 r.248                -1989.86      -1989.86               
   245 r.249                -1994.62      -1997.05               
   246 r.250                -4.16316      -1992.71               
   247 r.251                -1994.62      -1997.05               
   248 r.252                -4.16316      -1992.71               

   No. Column name       Activity     Lower bound   Upper bound
------ ------------    ------------- ------------- -------------
     1 tt                    13.6131             0               
     2 s_1_1        *              1             0             1 
     3 t_1_1                 11.7451             0               
     4 s_1_6        *              1             0             1 
     5 s_2_1        *              0             0             1 
     6 t_2_1                 8.18483             0               
     7 s_2_6        *              0             0             1 
     8 s_1_2        *              1             0             1 
     9 t_1_2                 8.64593             0               
    10 s_1_7        *              1             0             1 
    11 s_2_2        *              0             0             1 
    12 t_2_2                 14.9886             0               
    13 s_2_7        *              0             0             1 
    14 s_1_3        *              1             0             1 
    15 t_1_3                 7.18243             0               
    16 s_2_3        *              0             0             1 
    17 t_2_3                 11.3533             0               
    18 s_1_4        *              1             0             1 
    19 t_1_4                 9.34445             0               
    20 s_2_4        *              0             0             1 
    21 t_2_4                 2003.42             0               
    22 s_1_5        *              1             0             1 
    23 t_1_5                 8.18483             0               
    24 s_2_5        *              0             0             1 
    25 t_2_5                 17.7254             0               
    26 t_1_6                  0.9647             0               
    27 t_2_6                 17.7254             0               
    28 t_1_7                       0             0               
    29 t_2_7                 11.3533             0               
    30 s_1_8        *              1             0             1 
    31 t_1_8                 13.5622             0               
    32 s_2_8        *              0             0             1 
    33 t_2_8                 13.5622             0               
    34 u_1_1_2      *              0             0             1 
    35 u_2_1_2      *              1             0             1 
    36 u_1_1_3      *              0             0             1 
    37 u_2_1_3      *              1             0             1 
    38 u_1_1_4      *              0             0             1 
    39 u_2_1_4      *              1             0             1 
    40 u_1_1_5      *              0             0             1 
    41 u_2_1_5      *              1             0             1 
    42 u_1_1_7      *              0             0             1 
    43 u_2_1_7      *              1             0             1 
    44 u_1_2_1      *              1             0             1 
    45 u_2_2_1      *              0             0             1 
    46 u_1_2_3      *              0             0             1 
    47 u_2_2_3      *              0             0             1 
    48 u_1_2_4      *              1             0             1 
    49 u_2_2_4      *              1             0             1 
    50 u_1_2_5      *              0             0             1 
    51 u_2_2_5      *              1             0             1 
    52 u_1_2_6      *              0             0             1 
    53 u_2_2_6      *              1             0             1 
    54 u_1_3_1      *              1             0             1 
    55 u_2_3_1      *              0             0             1 
    56 u_1_3_2      *              1             0             1 
    57 u_2_3_2      *              1             0             1 
    58 u_1_3_5      *              1             0             1 
    59 u_2_3_5      *              1             0             1 
    60 u_1_3_6      *              0             0             1 
    61 u_2_3_6      *              1             0             1 
    62 u_1_4_1      *              1             0             1 
    63 u_2_4_1      *              0             0             1 
    64 u_1_4_2      *              0             0             1 
    65 u_2_4_2      *              0             0             1 
    66 u_1_4_5      *              0             0             1 
    67 u_2_4_5      *              0             0             1 
    68 u_1_4_6      *              0             0             1 
    69 u_2_4_6      *              0             0             1 
    70 u_1_5_1      *              1             0             1 
    71 u_2_5_1      *              0             0             1 
    72 u_1_5_2      *              1             0             1 
    73 u_2_5_2      *              0             0             1 
    74 u_1_5_3      *              0             0             1 
    75 u_2_5_3      *              0             0             1 
    76 u_1_5_4      *              1             0             1 
    77 u_2_5_4      *              1             0             1 
    78 u_1_6_2      *              1             0             1 
    79 u_2_6_2      *              0             0             1 
    80 u_1_6_3      *              1             0             1 
    81 u_2_6_3      *              0             0             1 
    82 u_1_6_4      *              1             0             1 
    83 u_2_6_4      *              1             0             1 
    84 u_1_6_7      *              0             0             1 
    85 u_2_6_7      *              0             0             1 
    86 u_1_7_1      *              1             0             1 
    87 u_2_7_1      *              0             0             1 
    88 u_1_7_6      *              1             0             1 
    89 u_2_7_6      *              1             0             1 

Integer feasibility conditions:

KKT.PE: max.abs.err = 4.55e-13 on row 30
        max.rel.err = 1.10e-16 on row 30
        High quality

KKT.PB: max.abs.err = 3.60e-14 on row 99
        max.rel.err = 8.63e-15 on row 99
        High quality

End of output
